400
75 75
1 52 926
2 52 764
3 52 749
4 52 692
5 52 561
6 52 181
7 52 511
8 52 792
9 52 240
10 51 340
11 51 345
12 51 31
13 51 482
14 51 497
15 51 387
16 51 343
17 51 718
18 50 748
19 50 233
20 50 673
21 50 166
22 50 366
23 50 109
24 50 996
25 50 231
26 50 316
27 50 965
28 50 182
29 50 419
30 50 359
31 49 94
32 49 738
33 49 88
34 49 950
35 49 36
36 49 487
37 49 545
38 49 843
39 49 836
40 49 519
41 49 23
42 49 338
43 49 968
44 48 763
45 48 295
46 48 515
47 48 67
48 48 453
49 48 26
50 48 170
51 48 627
52 48 116
53 48 51
54 47 253
55 47 682
56 47 495
57 47 652
58 47 170
59 47 981
60 47 94
61 47 598
62 47 223
63 47 941
64 47 744
65 46 574
66 46 96
67 46 467
68 46 776
69 46 656
70 46 699
71 46 394
72 46 597
73 45 505
74 45 784
75 45 398
76 45 898
77 45 106
78 45 754
79 45 782
80 45 128
81 44 246
82 44 276
83 44 103
84 44 254
85 44 667
86 44 612
87 44 232
88 44 683
89 44 682
90 43 22
91 43 276
92 43 774
93 43 549
94 43 837
95 43 934
96 43 881
97 43 494
98 43 992
99 43 898
100 43 200
101 43 462
102 43 145
103 43 812
104 42 492
105 42 671
106 42 752
107 42 613
108 42 776
109 42 696
110 42 759
111 42 273
112 42 833
113 41 262
114 41 82
115 41 513
116 41 731
117 41 229
118 41 641
119 41 564
120 41 885
121 41 264
122 41 674
123 41 685
124 41 457
125 41 1
126 41 313
127 40 941
128 40 771
129 40 394
130 40 43
131 40 178
132 40 740
133 40 667
134 40 389
135 40 984
136 40 297
137 40 440
138 40 375
139 40 411
140 40 927
141 40 733
142 39 840
143 39 871
144 39 325
145 39 272
146 39 850
147 39 564
148 39 899
149 39 257
150 39 146
151 39 656
152 39 826
153 39 27
154 39 270
155 39 39
156 39 340
157 39 612
158 38 874
159 38 617
160 38 908
161 38 556
162 38 300
163 38 97
164 38 37
165 38 832
166 38 999
167 38 957
168 38 53
169 38 69
170 38 275
171 38 167
172 38 867
173 38 682
174 37 611
175 37 343
176 37 802
177 37 426
178 37 912
179 37 649
180 37 674
181 37 900
182 37 961
183 37 694
184 37 668
185 37 629
186 37 769
187 37 72
188 36 677
189 36 369
190 36 858
191 36 31
192 36 136
193 36 582
194 36 200
195 36 614
196 36 575
197 35 681
198 35 46
199 35 679
200 35 195
201 35 41
202 35 191
203 35 349
204 35 84
205 35 220
206 35 236
207 35 974
208 35 761
209 34 416
210 34 351
211 34 786
212 34 497
213 34 87
214 34 373
215 34 698
216 34 695
217 34 240
218 34 693
219 34 280
220 33 997
221 33 469
222 33 504
223 33 662
224 33 986
225 33 72
226 33 224
227 33 480
228 33 457
229 33 676
230 33 826
231 32 396
232 32 253
233 32 722
234 32 804
235 32 344
236 32 186
237 32 573
238 32 631
239 32 518
240 32 608
241 32 506
242 32 950
243 31 779
244 31 312
245 31 138
246 31 615
247 31 9
248 31 716
249 31 196
250 31 450
251 31 30
252 30 793
253 30 400
254 30 387
255 30 725
256 30 647
257 30 403
258 29 536
259 29 249
260 29 935
261 29 460
262 29 340
263 29 645
264 29 371
265 29 403
266 29 300
267 28 680
268 28 423
269 28 648
270 28 815
271 28 628
272 28 693
273 28 206
274 28 918
275 28 859
276 28 704
277 27 805
278 27 121
279 27 744
280 27 312
281 27 516
282 27 406
283 27 317
284 27 32
285 27 499
286 26 348
287 26 791
288 26 873
289 26 996
290 26 447
291 26 542
292 26 1
293 26 401
294 26 780
295 26 17
296 25 37
297 25 700
298 25 132
299 25 628
300 25 680
301 25 198
302 25 328
303 24 245
304 24 348
305 24 709
306 24 620
307 24 698
308 24 723
309 24 780
310 24 791
311 24 599
312 24 446
313 24 590
314 24 962
315 23 910
316 23 983
317 23 427
318 23 168
319 23 945
320 23 700
321 23 226
322 23 842
323 23 130
324 23 453
325 22 778
326 22 113
327 22 118
328 22 266
329 22 37
330 22 818
331 22 599
332 22 917
333 22 313
334 22 787
335 22 719
336 21 888
337 21 20
338 21 37
339 21 974
340 21 626
341 21 621
342 21 471
343 21 904
344 21 155
345 21 241
346 21 303
347 21 735
348 21 236
349 20 188
350 20 654
351 20 934
352 20 144
353 20 793
354 20 274
355 20 622
356 19 784
357 19 511
358 19 96
359 19 104
360 19 436
361 19 790
362 19 157
363 19 333
364 19 468
365 18 148
366 18 731
367 18 435
368 17 506
369 17 804
370 17 459
371 17 316
372 17 629
373 17 85
374 17 970
375 17 345
376 17 195
377 17 161
378 17 701
379 16 675
380 16 54
381 16 300
382 16 69
383 16 818
384 16 508
385 16 249
386 16 168
387 16 938
388 16 984
389 16 311
390 16 214
391 16 876
392 16 992
393 16 725
394 16 618
395 16 405
396 15 678
397 15 477
398 15 550
399 15 351
400 15 682
